\Problem name: compact

Minimize
OBJROW: C
Subject To
ord(0,1):  x(0,1) - x(0,2) >= 3
ord(0,2):  x(0,0) - x(0,1) >= 7
ord(1,1):  x(1,0) - x(1,1) >= 3
ord(1,2):  - x(1,0) + x(1,2) >= 1
ord(2,1):  x(2,1) - x(2,2) >= 5
ord(2,2):  x(2,0) - x(2,1) >= 5
ord(3,1):  - x(3,0) + x(3,2) >= 7
ord(3,2):  x(3,1) - x(3,2) >= 7
triangle2(0,1,0):  y(0,1,0) + y(1,0,0) = 1
triangle2(0,1,1):  y(0,1,1) + y(1,0,1) = 1
triangle2(0,1,2):  y(0,1,2) + y(1,0,2) = 1
triangle2(0,2,0):  y(0,2,0) + y(2,0,0) = 1
triangle2(0,2,1):  y(0,2,1) + y(2,0,1) = 1
triangle2(0,2,2):  y(0,2,2) + y(2,0,2) = 1
triangle2(0,3,0):  y(0,3,0) + y(3,0,0) = 1
triangle2(0,3,1):  y(0,3,1) + y(3,0,1) = 1
triangle2(0,3,2):  y(0,3,2) + y(3,0,2) = 1
triangle2(1,2,0):  y(1,2,0) + y(2,1,0) = 1
triangle2(1,2,1):  y(1,2,1) + y(2,1,1) = 1
triangle2(1,2,2):  y(1,2,2) + y(2,1,2) = 1
triangle2(1,3,0):  y(1,3,0) + y(3,1,0) = 1
triangle2(1,3,1):  y(1,3,1) + y(3,1,1) = 1
triangle2(1,3,2):  y(1,3,2) + y(3,1,2) = 1
triangle2(2,3,0):  y(2,3,0) + y(3,2,0) = 1
triangle2(2,3,1):  y(2,3,1) + y(3,2,1) = 1
triangle2(2,3,2):  y(2,3,2) + y(3,2,2) = 1
MCLinV(0,1,0):  x(0,0) - v(0,1,0) - x(1,0) = 1
MCLinV(1,0,0):  - x(0,0) - v(1,0,0) + x(1,0) = 6
MCLin1(0,1,0):  u(0,1,0) >= -0
MCLin2(0,1,0):  -50 y(1,0,0) - u(0,1,0) <= -0
MCLin3(0,1,0):  58 y(1,0,0) + v(0,1,0) - u(0,1,0) <= 58
MCLin4(0,1,0):  58 y(1,0,0) - u(0,1,0) >= -0
MCLin5(0,1,0):  -50 y(1,0,0) + v(0,1,0) - u(0,1,0) >= -50
MCLin6(1,0,0):  u(1,0,0) >= -0
MCLin7(1,0,0):  -65 y(0,1,0) - u(1,0,0) <= -0
MCLin8(1,0,0):  43 y(0,1,0) + v(1,0,0) - u(1,0,0) <= 43
MCLin9(1,0,0):  43 y(0,1,0) - u(1,0,0) >= -0
MCLin10(1,0,0):  -65 y(0,1,0) + v(1,0,0) - u(1,0,0) >= -65
MCLinV(0,1,1):  x(0,1) - v(0,1,1) - x(1,1) = 3
MCLinV(1,0,1):  - x(0,1) - v(1,0,1) + x(1,1) = 7
MCLin1(0,1,1):  u(0,1,1) >= -0
MCLin2(0,1,1):  -56 y(1,0,1) - u(0,1,1) <= -0
MCLin3(0,1,1):  52 y(1,0,1) + v(0,1,1) - u(0,1,1) <= 52
MCLin4(0,1,1):  52 y(1,0,1) - u(0,1,1) >= -0
MCLin5(0,1,1):  -56 y(1,0,1) + v(0,1,1) - u(0,1,1) >= -56
MCLin6(1,0,1):  u(1,0,1) >= -0
MCLin7(1,0,1):  -62 y(0,1,1) - u(1,0,1) <= -0
MCLin8(1,0,1):  46 y(0,1,1) + v(1,0,1) - u(1,0,1) <= 46
MCLin9(1,0,1):  46 y(0,1,1) - u(1,0,1) >= -0
MCLin10(1,0,1):  -62 y(0,1,1) + v(1,0,1) - u(1,0,1) >= -62
MCLinV(0,1,2):  x(0,2) - v(0,1,2) - x(1,2) = 8
MCLinV(1,0,2):  - x(0,2) - v(1,0,2) + x(1,2) = 3
MCLin1(0,1,2):  u(0,1,2) >= -0
MCLin2(0,1,2):  -68 y(1,0,2) - u(0,1,2) <= -0
MCLin3(0,1,2):  40 y(1,0,2) + v(0,1,2) - u(0,1,2) <= 40
MCLin4(0,1,2):  40 y(1,0,2) - u(0,1,2) >= -0
MCLin5(0,1,2):  -68 y(1,0,2) + v(0,1,2) - u(0,1,2) >= -68
MCLin6(1,0,2):  u(1,0,2) >= -0
MCLin7(1,0,2):  -51 y(0,1,2) - u(1,0,2) <= -0
MCLin8(1,0,2):  57 y(0,1,2) + v(1,0,2) - u(1,0,2) <= 57
MCLin9(1,0,2):  57 y(0,1,2) - u(1,0,2) >= -0
MCLin10(1,0,2):  -51 y(0,1,2) + v(1,0,2) - u(1,0,2) >= -51
MCLinV(0,2,0):  x(0,0) - v(0,2,0) - x(2,0) = 10
MCLinV(2,0,0):  - x(0,0) - v(2,0,0) + x(2,0) = 6
MCLin1(0,2,0):  u(0,2,0) >= -0
MCLin2(0,2,0):  -58 y(2,0,0) - u(0,2,0) <= -0
MCLin3(0,2,0):  42 y(2,0,0) + v(0,2,0) - u(0,2,0) <= 42
MCLin4(0,2,0):  42 y(2,0,0) - u(0,2,0) >= -0
MCLin5(0,2,0):  -58 y(2,0,0) + v(0,2,0) - u(0,2,0) >= -58
MCLin6(2,0,0):  u(2,0,0) >= -0
MCLin7(2,0,0):  -58 y(0,2,0) - u(2,0,0) <= -0
MCLin8(2,0,0):  42 y(0,2,0) + v(2,0,0) - u(2,0,0) <= 42
MCLin9(2,0,0):  42 y(0,2,0) - u(2,0,0) >= -0
MCLin10(2,0,0):  -58 y(0,2,0) + v(2,0,0) - u(2,0,0) >= -58
MCLinV(0,2,1):  x(0,1) - v(0,2,1) - x(2,1) = 5
MCLinV(2,0,1):  - x(0,1) - v(2,0,1) + x(2,1) = 7
MCLin1(0,2,1):  u(0,2,1) >= -0
MCLin2(0,2,1):  -55 y(2,0,1) - u(0,2,1) <= -0
MCLin3(0,2,1):  45 y(2,0,1) + v(0,2,1) - u(0,2,1) <= 45
MCLin4(0,2,1):  45 y(2,0,1) - u(0,2,1) >= -0
MCLin5(0,2,1):  -55 y(2,0,1) + v(0,2,1) - u(0,2,1) >= -55
MCLin6(2,0,1):  u(2,0,1) >= -0
MCLin7(2,0,1):  -57 y(0,2,1) - u(2,0,1) <= -0
MCLin8(2,0,1):  43 y(0,2,1) + v(2,0,1) - u(2,0,1) <= 43
MCLin9(2,0,1):  43 y(0,2,1) - u(2,0,1) >= -0
MCLin10(2,0,1):  -57 y(0,2,1) + v(2,0,1) - u(2,0,1) >= -57
MCLinV(0,2,2):  x(0,2) - v(0,2,2) - x(2,2) = 5
MCLinV(2,0,2):  - x(0,2) - v(2,0,2) + x(2,2) = 3
MCLin1(0,2,2):  u(0,2,2) >= -0
MCLin2(0,2,2):  -53 y(2,0,2) - u(0,2,2) <= -0
MCLin3(0,2,2):  47 y(2,0,2) + v(0,2,2) - u(0,2,2) <= 47
MCLin4(0,2,2):  47 y(2,0,2) - u(0,2,2) >= -0
MCLin5(0,2,2):  -53 y(2,0,2) + v(0,2,2) - u(0,2,2) >= -53
MCLin6(2,0,2):  u(2,0,2) >= -0
MCLin7(2,0,2):  -55 y(0,2,2) - u(2,0,2) <= -0
MCLin8(2,0,2):  45 y(0,2,2) + v(2,0,2) - u(2,0,2) <= 45
MCLin9(2,0,2):  45 y(0,2,2) - u(2,0,2) >= -0
MCLin10(2,0,2):  -55 y(0,2,2) + v(2,0,2) - u(2,0,2) >= -55
MCLinV(0,3,0):  x(0,0) - v(0,3,0) - x(3,0) = 7
MCLinV(3,0,0):  - x(0,0) - v(3,0,0) + x(3,0) = 6
MCLin1(0,3,0):  u(0,3,0) >= -0
MCLin2(0,3,0):  -45 y(3,0,0) - u(0,3,0) <= -0
MCLin3(0,3,0):  55 y(3,0,0) + v(0,3,0) - u(0,3,0) <= 55
MCLin4(0,3,0):  55 y(3,0,0) - u(0,3,0) >= -0
MCLin5(0,3,0):  -45 y(3,0,0) + v(0,3,0) - u(0,3,0) >= -45
MCLin6(3,0,0):  u(3,0,0) >= -0
MCLin7(3,0,0):  -68 y(0,3,0) - u(3,0,0) <= -0
MCLin8(3,0,0):  32 y(0,3,0) + v(3,0,0) - u(3,0,0) <= 32
MCLin9(3,0,0):  32 y(0,3,0) - u(3,0,0) >= -0
MCLin10(3,0,0):  -68 y(0,3,0) + v(3,0,0) - u(3,0,0) >= -68
MCLinV(0,3,1):  x(0,1) - v(0,3,1) - x(3,1) = 6
MCLinV(3,0,1):  - x(0,1) - v(3,0,1) + x(3,1) = 7
MCLin1(0,3,1):  u(0,3,1) >= -0
MCLin2(0,3,1):  -65 y(3,0,1) - u(0,3,1) <= -0
MCLin3(0,3,1):  35 y(3,0,1) + v(0,3,1) - u(0,3,1) <= 35
MCLin4(0,3,1):  35 y(3,0,1) - u(0,3,1) >= -0
MCLin5(0,3,1):  -65 y(3,0,1) + v(0,3,1) - u(0,3,1) >= -65
MCLin6(3,0,1):  u(3,0,1) >= -0
MCLin7(3,0,1):  -48 y(0,3,1) - u(3,0,1) <= -0
MCLin8(3,0,1):  52 y(0,3,1) + v(3,0,1) - u(3,0,1) <= 52
MCLin9(3,0,1):  52 y(0,3,1) - u(3,0,1) >= -0
MCLin10(3,0,1):  -48 y(0,3,1) + v(3,0,1) - u(3,0,1) >= -48
MCLinV(0,3,2):  x(0,2) - v(0,3,2) - x(3,2) = 7
MCLinV(3,0,2):  - x(0,2) - v(3,0,2) + x(3,2) = 3
MCLin1(0,3,2):  u(0,3,2) >= -0
MCLin2(0,3,2):  -62 y(3,0,2) - u(0,3,2) <= -0
MCLin3(0,3,2):  38 y(3,0,2) + v(0,3,2) - u(0,3,2) <= 38
MCLin4(0,3,2):  38 y(3,0,2) - u(0,3,2) >= -0
MCLin5(0,3,2):  -62 y(3,0,2) + v(0,3,2) - u(0,3,2) >= -62
MCLin6(3,0,2):  u(3,0,2) >= -0
MCLin7(3,0,2):  -48 y(0,3,2) - u(3,0,2) <= -0
MCLin8(3,0,2):  52 y(0,3,2) + v(3,0,2) - u(3,0,2) <= 52
MCLin9(3,0,2):  52 y(0,3,2) - u(3,0,2) >= -0
MCLin10(3,0,2):  -48 y(0,3,2) + v(3,0,2) - u(3,0,2) >= -48
MCLinV(1,2,0):  x(1,0) - v(1,2,0) - x(2,0) = 10
MCLinV(2,1,0):  - x(1,0) - v(2,1,0) + x(2,0) = 1
MCLin1(1,2,0):  u(1,2,0) >= -0
MCLin2(1,2,0):  -65 y(2,1,0) - u(1,2,0) <= -0
MCLin3(1,2,0):  39 y(2,1,0) + v(1,2,0) - u(1,2,0) <= 39
MCLin4(1,2,0):  39 y(2,1,0) - u(1,2,0) >= -0
MCLin5(1,2,0):  -65 y(2,1,0) + v(1,2,0) - u(1,2,0) >= -65
MCLin6(2,1,0):  u(2,1,0) >= -0
MCLin7(2,1,0):  -50 y(1,2,0) - u(2,1,0) <= -0
MCLin8(2,1,0):  54 y(1,2,0) + v(2,1,0) - u(2,1,0) <= 54
MCLin9(2,1,0):  54 y(1,2,0) - u(2,1,0) >= -0
MCLin10(2,1,0):  -50 y(1,2,0) + v(2,1,0) - u(2,1,0) >= -50
MCLinV(1,2,1):  x(1,1) - v(1,2,1) - x(2,1) = 5
MCLinV(2,1,1):  - x(1,1) - v(2,1,1) + x(2,1) = 3
MCLin1(1,2,1):  u(1,2,1) >= -0
MCLin2(1,2,1):  -58 y(2,1,1) - u(1,2,1) <= -0
MCLin3(1,2,1):  46 y(2,1,1) + v(1,2,1) - u(1,2,1) <= 46
MCLin4(1,2,1):  46 y(2,1,1) - u(1,2,1) >= -0
MCLin5(1,2,1):  -58 y(2,1,1) + v(1,2,1) - u(1,2,1) >= -58
MCLin6(2,1,1):  u(2,1,1) >= -0
MCLin7(2,1,1):  -54 y(1,2,1) - u(2,1,1) <= -0
MCLin8(2,1,1):  50 y(1,2,1) + v(2,1,1) - u(2,1,1) <= 50
MCLin9(2,1,1):  50 y(1,2,1) - u(2,1,1) >= -0
MCLin10(2,1,1):  -54 y(1,2,1) + v(2,1,1) - u(2,1,1) >= -54
MCLinV(1,2,2):  x(1,2) - v(1,2,2) - x(2,2) = 5
MCLinV(2,1,2):  - x(1,2) - v(2,1,2) + x(2,2) = 8
MCLin1(1,2,2):  u(1,2,2) >= -0
MCLin2(1,2,2):  -49 y(2,1,2) - u(1,2,2) <= -0
MCLin3(1,2,2):  55 y(2,1,2) + v(1,2,2) - u(1,2,2) <= 55
MCLin4(1,2,2):  55 y(2,1,2) - u(1,2,2) >= -0
MCLin5(1,2,2):  -49 y(2,1,2) + v(1,2,2) - u(1,2,2) >= -49
MCLin6(2,1,2):  u(2,1,2) >= -0
MCLin7(2,1,2):  -68 y(1,2,2) - u(2,1,2) <= -0
MCLin8(2,1,2):  36 y(1,2,2) + v(2,1,2) - u(2,1,2) <= 36
MCLin9(2,1,2):  36 y(1,2,2) - u(2,1,2) >= -0
MCLin10(2,1,2):  -68 y(1,2,2) + v(2,1,2) - u(2,1,2) >= -68
MCLinV(1,3,0):  x(1,0) - v(1,3,0) - x(3,0) = 7
MCLinV(3,1,0):  - x(1,0) - v(3,1,0) + x(3,0) = 1
MCLin1(1,3,0):  u(1,3,0) >= -0
MCLin2(1,3,0):  -52 y(3,1,0) - u(1,3,0) <= -0
MCLin3(1,3,0):  52 y(3,1,0) + v(1,3,0) - u(1,3,0) <= 52
MCLin4(1,3,0):  52 y(3,1,0) - u(1,3,0) >= -0
MCLin5(1,3,0):  -52 y(3,1,0) + v(1,3,0) - u(1,3,0) >= -52
MCLin6(3,1,0):  u(3,1,0) >= -0
MCLin7(3,1,0):  -60 y(1,3,0) - u(3,1,0) <= -0
MCLin8(3,1,0):  44 y(1,3,0) + v(3,1,0) - u(3,1,0) <= 44
MCLin9(3,1,0):  44 y(1,3,0) - u(3,1,0) >= -0
MCLin10(3,1,0):  -60 y(1,3,0) + v(3,1,0) - u(3,1,0) >= -60
MCLinV(1,3,1):  x(1,1) - v(1,3,1) - x(3,1) = 6
MCLinV(3,1,1):  - x(1,1) - v(3,1,1) + x(3,1) = 3
MCLin1(1,3,1):  u(1,3,1) >= -0
MCLin2(1,3,1):  -68 y(3,1,1) - u(1,3,1) <= -0
MCLin3(1,3,1):  36 y(3,1,1) + v(1,3,1) - u(1,3,1) <= 36
MCLin4(1,3,1):  36 y(3,1,1) - u(1,3,1) >= -0
MCLin5(1,3,1):  -68 y(3,1,1) + v(1,3,1) - u(1,3,1) >= -68
MCLin6(3,1,1):  u(3,1,1) >= -0
MCLin7(3,1,1):  -45 y(1,3,1) - u(3,1,1) <= -0
MCLin8(3,1,1):  59 y(1,3,1) + v(3,1,1) - u(3,1,1) <= 59
MCLin9(3,1,1):  59 y(1,3,1) - u(3,1,1) >= -0
MCLin10(3,1,1):  -45 y(1,3,1) + v(3,1,1) - u(3,1,1) >= -45
MCLinV(1,3,2):  x(1,2) - v(1,3,2) - x(3,2) = 7
MCLinV(3,1,2):  - x(1,2) - v(3,1,2) + x(3,2) = 8
MCLin1(1,3,2):  u(1,3,2) >= -0
MCLin2(1,3,2):  -58 y(3,1,2) - u(1,3,2) <= -0
MCLin3(1,3,2):  46 y(3,1,2) + v(1,3,2) - u(1,3,2) <= 46
MCLin4(1,3,2):  46 y(3,1,2) - u(1,3,2) >= -0
MCLin5(1,3,2):  -58 y(3,1,2) + v(1,3,2) - u(1,3,2) >= -58
MCLin6(3,1,2):  u(3,1,2) >= -0
MCLin7(3,1,2):  -61 y(1,3,2) - u(3,1,2) <= -0
MCLin8(3,1,2):  43 y(1,3,2) + v(3,1,2) - u(3,1,2) <= 43
MCLin9(3,1,2):  43 y(1,3,2) - u(3,1,2) >= -0
MCLin10(3,1,2):  -61 y(1,3,2) + v(3,1,2) - u(3,1,2) >= -61
MCLinV(2,3,0):  x(2,0) - v(2,3,0) - x(3,0) = 7
MCLinV(3,2,0):  - x(2,0) - v(3,2,0) + x(3,0) = 10
MCLin1(2,3,0):  u(2,3,0) >= -0
MCLin2(2,3,0):  -45 y(3,2,0) - u(2,3,0) <= -0
MCLin3(2,3,0):  51 y(3,2,0) + v(2,3,0) - u(2,3,0) <= 51
MCLin4(2,3,0):  51 y(3,2,0) - u(2,3,0) >= -0
MCLin5(2,3,0):  -45 y(3,2,0) + v(2,3,0) - u(2,3,0) >= -45
MCLin6(3,2,0):  u(3,2,0) >= -0
MCLin7(3,2,0):  -68 y(2,3,0) - u(3,2,0) <= -0
MCLin8(3,2,0):  28 y(2,3,0) + v(3,2,0) - u(3,2,0) <= 28
MCLin9(3,2,0):  28 y(2,3,0) - u(3,2,0) >= -0
MCLin10(3,2,0):  -68 y(2,3,0) + v(3,2,0) - u(3,2,0) >= -68
MCLinV(2,3,1):  x(2,1) - v(2,3,1) - x(3,1) = 6
MCLinV(3,2,1):  - x(2,1) - v(3,2,1) + x(3,1) = 5
MCLin1(2,3,1):  u(2,3,1) >= -0
MCLin2(2,3,1):  -63 y(3,2,1) - u(2,3,1) <= -0
MCLin3(2,3,1):  33 y(3,2,1) + v(2,3,1) - u(2,3,1) <= 33
MCLin4(2,3,1):  33 y(3,2,1) - u(2,3,1) >= -0
MCLin5(2,3,1):  -63 y(3,2,1) + v(2,3,1) - u(2,3,1) >= -63
MCLin6(3,2,1):  u(3,2,1) >= -0
MCLin7(3,2,1):  -44 y(2,3,1) - u(3,2,1) <= -0
MCLin8(3,2,1):  52 y(2,3,1) + v(3,2,1) - u(3,2,1) <= 52
MCLin9(3,2,1):  52 y(2,3,1) - u(3,2,1) >= -0
MCLin10(3,2,1):  -44 y(2,3,1) + v(3,2,1) - u(3,2,1) >= -44
MCLinV(2,3,2):  x(2,2) - v(2,3,2) - x(3,2) = 7
MCLinV(3,2,2):  - x(2,2) - v(3,2,2) + x(3,2) = 5
MCLin1(2,3,2):  u(2,3,2) >= -0
MCLin2(2,3,2):  -62 y(3,2,2) - u(2,3,2) <= -0
MCLin3(2,3,2):  34 y(3,2,2) + v(2,3,2) - u(2,3,2) <= 34
MCLin4(2,3,2):  34 y(3,2,2) - u(2,3,2) >= -0
MCLin5(2,3,2):  -62 y(3,2,2) + v(2,3,2) - u(2,3,2) >= -62
MCLin6(3,2,2):  u(3,2,2) >= -0
MCLin7(3,2,2):  -46 y(2,3,2) - u(3,2,2) <= -0
MCLin8(3,2,2):  50 y(2,3,2) + v(3,2,2) - u(3,2,2) <= 50
MCLin9(3,2,2):  50 y(2,3,2) - u(3,2,2) >= -0
MCLin10(3,2,2):  -46 y(2,3,2) + v(3,2,2) - u(3,2,2) >= -46
makespan(0):  C - x(0,0) >= 6
makespan(1):  C - x(1,2) >= 8
makespan(2):  C - x(2,0) >= 10
makespan(3):  C - x(3,1) >= 6
Bounds
 0 <= C <= 68
 10 <= x(0,0) <= 62
 0 <= y(0,1,0) <= 1
 0 <= y(1,0,0) <= 1
 -50 <= v(0,1,0) <= 58
 -65 <= v(1,0,0) <= 43
 -680 <= u(0,1,0)
 -680 <= u(1,0,0)
 0 <= y(0,2,0) <= 1
 0 <= y(2,0,0) <= 1
 -58 <= v(0,2,0) <= 42
 -58 <= v(2,0,0) <= 42
 -680 <= u(0,2,0)
 -680 <= u(2,0,0)
 0 <= y(0,3,0) <= 1
 0 <= y(3,0,0) <= 1
 -45 <= v(0,3,0) <= 55
 -68 <= v(3,0,0) <= 32
 -680 <= u(0,3,0)
 -680 <= u(3,0,0)
 3 <= x(1,0) <= 59
 0 <= y(1,2,0) <= 1
 0 <= y(2,1,0) <= 1
 -65 <= v(1,2,0) <= 39
 -50 <= v(2,1,0) <= 54
 -680 <= u(1,2,0)
 -680 <= u(2,1,0)
 0 <= y(1,3,0) <= 1
 0 <= y(3,1,0) <= 1
 -52 <= v(1,3,0) <= 52
 -60 <= v(3,1,0) <= 44
 -680 <= u(1,3,0)
 -680 <= u(3,1,0)
 10 <= x(2,0) <= 58
 0 <= y(2,3,0) <= 1
 0 <= y(3,2,0) <= 1
 -45 <= v(2,3,0) <= 51
 -68 <= v(3,2,0) <= 28
 -680 <= u(2,3,0)
 -680 <= u(3,2,0)
 0 <= x(3,0) <= 48
 3 <= x(0,1) <= 55
 0 <= y(0,1,1) <= 1
 0 <= y(1,0,1) <= 1
 -56 <= v(0,1,1) <= 52
 -62 <= v(1,0,1) <= 46
 -680 <= u(0,1,1)
 -680 <= u(1,0,1)
 0 <= y(0,2,1) <= 1
 0 <= y(2,0,1) <= 1
 -55 <= v(0,2,1) <= 45
 -57 <= v(2,0,1) <= 43
 -680 <= u(0,2,1)
 -680 <= u(2,0,1)
 0 <= y(0,3,1) <= 1
 0 <= y(3,0,1) <= 1
 -65 <= v(0,3,1) <= 35
 -48 <= v(3,0,1) <= 52
 -680 <= u(0,3,1)
 -680 <= u(3,0,1)
 0 <= x(1,1) <= 56
 0 <= y(1,2,1) <= 1
 0 <= y(2,1,1) <= 1
 -58 <= v(1,2,1) <= 46
 -54 <= v(2,1,1) <= 50
 -680 <= u(1,2,1)
 -680 <= u(2,1,1)
 0 <= y(1,3,1) <= 1
 0 <= y(3,1,1) <= 1
 -68 <= v(1,3,1) <= 36
 -45 <= v(3,1,1) <= 59
 -680 <= u(1,3,1)
 -680 <= u(3,1,1)
 5 <= x(2,1) <= 53
 0 <= y(2,3,1) <= 1
 0 <= y(3,2,1) <= 1
 -63 <= v(2,3,1) <= 33
 -44 <= v(3,2,1) <= 52
 -680 <= u(2,3,1)
 -680 <= u(3,2,1)
 14 <= x(3,1) <= 62
 0 <= x(0,2) <= 52
 0 <= y(0,1,2) <= 1
 0 <= y(1,0,2) <= 1
 -68 <= v(0,1,2) <= 40
 -51 <= v(1,0,2) <= 57
 -680 <= u(0,1,2)
 -680 <= u(1,0,2)
 0 <= y(0,2,2) <= 1
 0 <= y(2,0,2) <= 1
 -53 <= v(0,2,2) <= 47
 -55 <= v(2,0,2) <= 45
 -680 <= u(0,2,2)
 -680 <= u(2,0,2)
 0 <= y(0,3,2) <= 1
 0 <= y(3,0,2) <= 1
 -62 <= v(0,3,2) <= 38
 -48 <= v(3,0,2) <= 52
 -680 <= u(0,3,2)
 -680 <= u(3,0,2)
 4 <= x(1,2) <= 60
 0 <= y(1,2,2) <= 1
 0 <= y(2,1,2) <= 1
 -49 <= v(1,2,2) <= 55
 -68 <= v(2,1,2) <= 36
 -680 <= u(1,2,2)
 -680 <= u(2,1,2)
 0 <= y(1,3,2) <= 1
 0 <= y(3,1,2) <= 1
 -58 <= v(1,3,2) <= 46
 -61 <= v(3,1,2) <= 43
 -680 <= u(1,3,2)
 -680 <= u(3,1,2)
 0 <= x(2,2) <= 48
 0 <= y(2,3,2) <= 1
 0 <= y(3,2,2) <= 1
 -62 <= v(2,3,2) <= 34
 -46 <= v(3,2,2) <= 50
 -680 <= u(2,3,2)
 -680 <= u(3,2,2)
 7 <= x(3,2) <= 55
Integers
C x(0,0) y(0,1,0) y(1,0,0) v(0,1,0) v(1,0,0) u(0,1,0) u(1,0,0) y(0,2,0) y(2,0,0) 
v(0,2,0) v(2,0,0) u(0,2,0) u(2,0,0) y(0,3,0) y(3,0,0) v(0,3,0) v(3,0,0) u(0,3,0) u(3,0,0) 
x(1,0) y(1,2,0) y(2,1,0) v(1,2,0) v(2,1,0) u(1,2,0) u(2,1,0) y(1,3,0) y(3,1,0) v(1,3,0) 
v(3,1,0) u(1,3,0) u(3,1,0) x(2,0) y(2,3,0) y(3,2,0) v(2,3,0) v(3,2,0) u(2,3,0) u(3,2,0) 
x(3,0) x(0,1) y(0,1,1) y(1,0,1) v(0,1,1) v(1,0,1) u(0,1,1) u(1,0,1) y(0,2,1) y(2,0,1) 
v(0,2,1) v(2,0,1) u(0,2,1) u(2,0,1) y(0,3,1) y(3,0,1) v(0,3,1) v(3,0,1) u(0,3,1) u(3,0,1) 
x(1,1) y(1,2,1) y(2,1,1) v(1,2,1) v(2,1,1) u(1,2,1) u(2,1,1) y(1,3,1) y(3,1,1) v(1,3,1) 
v(3,1,1) u(1,3,1) u(3,1,1) x(2,1) y(2,3,1) y(3,2,1) v(2,3,1) v(3,2,1) u(2,3,1) u(3,2,1) 
x(3,1) x(0,2) y(0,1,2) y(1,0,2) v(0,1,2) v(1,0,2) u(0,1,2) u(1,0,2) y(0,2,2) y(2,0,2) 
v(0,2,2) v(2,0,2) u(0,2,2) u(2,0,2) y(0,3,2) y(3,0,2) v(0,3,2) v(3,0,2) u(0,3,2) u(3,0,2) 
x(1,2) y(1,2,2) y(2,1,2) v(1,2,2) v(2,1,2) u(1,2,2) u(2,1,2) y(1,3,2) y(3,1,2) v(1,3,2) 
v(3,1,2) u(1,3,2) u(3,1,2) x(2,2) y(2,3,2) y(3,2,2) v(2,3,2) v(3,2,2) u(2,3,2) u(3,2,2) 
x(3,2) 
End
